[VALIDATOR STDOUT]
Checking plan: /home/fjl2401/Safety-gen/benchmark_problems/grid/optic_results/grid_x7_y7_sh2_k4_l4_s7001.plan
Plan executed successfully - checking goal
Goal not satisfied
Plan invalid


Failed plans:
 /home/fjl2401/Safety-gen/benchmark_problems/grid/optic_results/grid_x7_y7_sh2_k4_l4_s7001.plan
